countOfNodes = 27;
countOfEdges = 55;
edges = [|2,1,
|3,2,
|3,1,
|4,3,
|4,1,
|5,3,
|5,1,
|6,5,
|7,6,
|7,1,
|8,5,
|8,6,
|9,8,
|9,2,
|10,9,
|11,10,
|11,2,
|12,11,
|12,3,
|13,12,
|14,5,
|15,14,
|15,8,
|16,15,
|16,8,
|16,9,
|16,10,
|17,16,
|17,10,
|17,11,
|17,12,
|18,17,
|18,12,
|18,13,
|18,16,
|19,16,
|19,13,
|20,19,
|20,14,
|21,20,
|21,15,
|21,16,
|22,3,
|23,6,
|23,1,
|24,8,
|24,7,
|25,14,
|25,13,
|26,22,
|26,2,
|27,26,
|27,1,
|27,4,
|27,3|];